certificates/rado_a11_c199_N21.cnf
c Rad2 upper bound instance: x1 + 11*x2 - x3 = 199, interval [1,21]
p cnf 21 78
1 11 19 0
-1 -11 -19 0
1 2 18 0
-1 -2 -18 0
2 12 19 0
-2 -12 -19 0
2 3 18 0
-2 -3 -18 0
3 13 19 0
-3 -13 -19 0
3 4 18 0
-3 -4 -18 0
4 14 19 0
-4 -14 -19 0
4 5 18 0
-4 -5 -18 0
5 15 19 0
-5 -15 -19 0
5 6 18 0
-5 -6 -18 0
6 16 19 0
-6 -16 -19 0
6 7 18 0
-6 -7 -18 0
7 17 19 0
-7 -17 -19 0
7 8 18 0
-7 -8 -18 0
8 18 19 0
-8 -18 -19 0
8 9 18 0
-8 -9 -18 0
9 19 0
-9 -19 0
9 10 18 0
-9 -10 -18 0
10 19 20 0
-10 -19 -20 0
10 11 18 0
-10 -11 -18 0
11 19 21 0
-11 -19 -21 0
11 12 18 0
-11 -12 -18 0
1 13 17 0
-1 -13 -17 0
12 13 18 0
-12 -13 -18 0
2 14 17 0
-2 -14 -17 0
13 14 18 0
-13 -14 -18 0
3 15 17 0
-3 -15 -17 0
14 15 18 0
-14 -15 -18 0
4 16 17 0
-4 -16 -17 0
15 16 18 0
-15 -16 -18 0
5 17 0
-5 -17 0
16 17 18 0
-16 -17 -18 0
6 17 18 0
-6 -17 -18 0
17 18 0
-17 -18 0
18 19 0
-18 -19 0
8 17 20 0
-8 -17 -20 0
18 19 20 0
-18 -19 -20 0
9 17 21 0
-9 -17 -21 0
18 20 21 0
-18 -20 -21 0
