certificates/rado_a11_c199_N21.drat
-20 -21 0
d -20 -18 -21 0
-19 -21 0
-21 0
19 0
-9 0
-18 0
8 0
10 0
17 0
20 0
0
